22      4       
14      16      12      18      
0       0       0       0       0       3       2       3       4       
4       4       7       6       5       2       14      19      
5       6       0       6       0       3       5       9       13      
6       2       0       0       0       2       6       8       
1       0       2       0       0       2       7       20      
2       0       9       0       4       2       12      20      
6       6       0       0       0       3       10      15      17      
8       0       0       5       0       1       16      
4       8       5       0       0       1       14      
1       6       10      0       0       2       11      21      
7       0       10      1       9       1       12      
8       7       4       0       0       1       18      
10      0       8       0       9       2       14      21      
5       4       0       0       7       1       20      
4       0       0       4       0       1       18      
4       5       0       4       9       1       21      
6       6       4       7       0       1       18      
7       7       0       0       2       1       19      
5       0       10      3       6       1       22      
7       7       0       6       0       1       22      
6       5       4       0       0       1       22      
0       0       0       0       0       0       